c preprocessed version of rat99.tsp, 96 vertices, 272 edges
p td 96 272
1 0
0 4
0 5
0 7
0 6
1 2
1 3
1 4
1 7
1 25
90 1
3 2
12 2
2 14
90 2
4 3
3 12
3 11
5 4
4 11
5 6
5 10
5 11
7 6
6 10
6 8
6 9
7 8
7 25
9 8
25 8
8 24
10 9
9 11
9 13
9 22
9 23
9 24
10 11
12 11
11 13
12 13
12 14
13 14
13 22
13 15
13 21
14 15
90 14
91 14
15 16
21 15
91 15
16 17
21 16
16 18
16 20
16 19
91 16
17 18
17 39
17 58
91 17
89 17
19 18
18 39
18 38
20 19
19 37
19 38
21 20
33 20
34 20
20 37
20 36
20 35
22 21
21 33
23 22
22 33
24 23
23 33
25 24
24 33
24 26
25 26
25 27
25 47
27 26
28 26
26 33
27 28
27 29
27 46
27 47
28 29
28 33
28 30
28 32
28 31
29 30
29 46
30 31
30 92
30 46
30 45
31 32
31 92
33 32
34 32
32 35
32 92
32 43
32 44
33 34
34 35
35 36
35 43
36 37
36 43
36 41
36 42
37 38
37 40
37 41
39 38
38 40
39 40
39 58
40 41
40 57
40 58
42 41
41 57
41 54
41 56
43 42
42 54
44 43
43 54
45 44
92 44
44 54
44 48
44 53
46 45
45 92
45 47
45 48
46 47
47 48
47 49
47 50
49 48
48 53
48 52
49 50
49 51
49 52
50 51
50 69
50 68
50 88
51 52
51 69
53 52
55 52
52 66
52 69
52 67
53 54
53 55
55 54
54 56
55 56
55 64
55 66
55 65
57 56
56 60
56 63
56 64
57 58
57 59
57 60
58 59
89 58
85 58
86 58
60 59
59 61
85 59
60 61
60 63
60 62
62 61
85 61
63 62
62 74
85 62
64 63
63 74
65 64
64 73
64 74
66 65
65 73
65 72
65 67
65 71
66 67
68 67
69 67
67 71
67 70
68 69
68 70
68 87
68 88
71 70
87 70
70 79
70 78
70 80
71 72
71 79
72 73
72 75
72 79
72 76
72 77
72 78
73 74
73 75
75 74
85 74
75 76
85 75
84 75
77 76
76 82
84 76
78 77
77 80
77 82
77 81
79 78
78 80
80 81
81 82
81 83
82 83
84 82
84 83
86 83
85 84
84 86
85 86
88 87
89 90
91 89
90 91
93 95
93 70
93 80
93 87
93 94
94 95
94 80
94 81
95 87
95 88
